500
    1   218   218
    2    95    95
    3   419   419
    4   167   167
    5     5     5
    6   177   177
    7   426   426
    8   321   321
    9    15    15
   10   222   222
   11   464   464
   12   474   474
   13    28    28
   14    22    22
   15   318   318
   16   292   292
   17   260   260
   18   307   307
   19   221   221
   20   163   163
   21   410   410
   22   364   364
   23   458   458
   24   164   164
   25   203   203
   26   220   220
   27    71    71
   28   311   311
   29   267   267
   30     4     4
   31    91    91
   32   197   197
   33   272   272
   34    27    27
   35   307   307
   36   111   111
   37   224   224
   38    59    59
   39    49    49
   40   254   254
   41   164   164
   42   446   446
   43    78    78
   44   272   272
   45   447   447
   46   237   237
   47   257   257
   48   481   481
   49   319   319
   50   446   446
   51   207   207
   52   207   207
   53   401   401
   54   433   433
   55   226   226
   56    76    76
   57    60    60
   58   111   111
   59   446   446
   60   153   153
   61   380   380
   62   398   398
   63   342   342
   64   221   221
   65   246   246
   66   489   489
   67   408   408
   68   256   256
   69   303   303
   70   244   244
   71   376   376
   72    82    82
   73   155   155
   74   350   350
   75   447   447
   76   496   496
   77   179   179
   78   155   155
   79   297   297
   80   276   276
   81     2     2
   82    69    69
   83   420   420
   84   350   350
   85   165   165
   86   114   114
   87   312   312
   88   292   292
   89   182   182
   90   195   195
   91   453   453
   92   136   136
   93    40    40
   94   105   105
   95   472   472
   96   145   145
   97    50    50
   98    45    45
   99   323   323
  100   390   390
  101   337   337
  102   256   256
  103    23    23
  104   499   499
  105   316   316
  106   208   208
  107   499   499
  108   398   398
  109   287   287
  110   269   269
  111    98    98
  112   475   475
  113   480   480
  114    27    27
  115   465   465
  116    77    77
  117    71    71
  118   133   133
  119   213   213
  120   232   232
  121   455   455
  122   325   325
  123    81    81
  124    31    31
  125   434   434
  126   282   282
  127   409   409
  128   174   174
  129   442   442
  130   327   327
  131    95    95
  132   350   350
  133   211   211
  134   246   246
  135   329   329
  136     2     2
  137   287   287
  138   473   473
  139   240   240
  140    58    58
  141   460   460
  142   186   186
  143   440   440
  144   344   344
  145   105   105
  146   270   270
  147   306   306
  148   378   378
  149   158   158
  150   279   279
  151   327   327
  152   115   115
  153   433   433
  154   267   267
  155   218   218
  156   414   414
  157   475   475
  158   477   477
  159   133   133
  160   424   424
  161   292   292
  162   364   364
  163   124   124
  164    59    59
  165   433   433
  166   210   210
  167   312   312
  168    59    59
  169   356   356
  170   262   262
  171   496   496
  172   385   385
  173    50    50
  174    91    91
  175   215   215
  176   432   432
  177     9     9
  178   329   329
  179   138   138
  180   495   495
  181   271   271
  182   155   155
  183    15    15
  184   326   326
  185   199   199
  186   458   458
  187    14    14
  188   345   345
  189   363   363
  190   297   297
  191   448   448
  192    63    63
  193   328   328
  194   314   314
  195   299   299
  196   397   397
  197   443   443
  198   381   381
  199   267   267
  200   449   449
  201    84    84
  202   417   417
  203   439   439
  204   430   430
  205     9     9
  206    99    99
  207   103   103
  208   422   422
  209   356   356
  210   448   448
  211   165   165
  212    56    56
  213   338   338
  214    63    63
  215   321   321
  216     5     5
  217   281   281
  218   171   171
  219    64    64
  220   281   281
  221   245   245
  222   126   126
  223   434   434
  224   295   295
  225   484   484
  226    34    34
  227   228   228
  228   244   244
  229   500   500
  230   335   335
  231   341   341
  232     6     6
  233   170   170
  234   364   364
  235   440   440
  236   282   282
  237   336   336
  238    55    55
  239   479   479
  240   208   208
  241    22    22
  242   190   190
  243   287   287
  244   447   447
  245   226   226
  246    15    15
  247   409   409
  248   340   340
  249   232   232
  250   232   232
  251     1     1
  252   409   409
  253   278   278
  254   365   365
  255   130   130
  256   179   179
  257    17    17
  258   380   380
  259    22    22
  260   297   297
  261     4     4
  262   383   383
  263    24    24
  264   480   480
  265   257   257
  266   105   105
  267   227   227
  268    35    35
  269   355   355
  270   262   262
  271   485   485
  272   380   380
  273   420   420
  274   397   397
  275     9     9
  276   310   310
  277   500   500
  278   220   220
  279   471   471
  280   350   350
  281   306   306
  282    31    31
  283   267   267
  284    41    41
  285   410   410
  286    22    22
  287    10    10
  288   208   208
  289   324   324
  290   261   261
  291   409   409
  292   207   207
  293    93    93
  294   382   382
  295   374   374
  296   148   148
  297   203   203
  298   293   293
  299   253   253
  300   491   491
  301   352   352
  302   445   445
  303   451   451
  304   323   323
  305   112   112
  306    72    72
  307    99    99
  308   216   216
  309    96    96
  310   325   325
  311    79    79
  312   477   477
  313   361   361
  314    78    78
  315   118   118
  316   102   102
  317    52    52
  318   256   256
  319    68    68
  320   326   326
  321   252   252
  322   107   107
  323   249   249
  324   418   418
  325   449   449
  326   351   351
  327   264   264
  328   310   310
  329    48    48
  330   293   293
  331   381   381
  332   262   262
  333    77    77
  334    68    68
  335   498   498
  336   269   269
  337   396   396
  338   127   127
  339   484   484
  340   102   102
  341   177   177
  342   347   347
  343     8     8
  344     7     7
  345   283   283
  346   331   331
  347   236   236
  348   259   259
  349    21    21
  350   316   316
  351    65    65
  352   433   433
  353   437   437
  354   448   448
  355    96    96
  356   123   123
  357    81    81
  358   187   187
  359   326   326
  360    73    73
  361   350   350
  362   108   108
  363   127   127
  364   386   386
  365   415   415
  366   482   482
  367   343   343
  368    30    30
  369   371   371
  370   238   238
  371   128   128
  372   210   210
  373   253   253
  374   346   346
  375   388   388
  376   421   421
  377   478   478
  378    76    76
  379    20    20
  380    36    36
  381   373   373
  382   461   461
  383    25    25
  384   252   252
  385   463   463
  386   414   414
  387   479   479
  388   345   345
  389   360   360
  390   341   341
  391   440   440
  392   218   218
  393   454   454
  394   217   217
  395   236   236
  396   201   201
  397   461   461
  398   431   431
  399    52    52
  400   181   181
  401    37    37
  402   117   117
  403   411   411
  404   318   318
  405   385   385
  406   289   289
  407     1     1
  408   495   495
  409   189   189
  410   267   267
  411   403   403
  412   273   273
  413    99    99
  414   384   384
  415   288   288
  416   496   496
  417   406   406
  418   427   427
  419   208   208
  420   420   420
  421   443   443
  422   422   422
  423   214   214
  424    10    10
  425    85    85
  426   110   110
  427   263   263
  428   270   270
  429   388   388
  430   376   376
  431   110   110
  432    31    31
  433   287   287
  434    84    84
  435   246   246
  436   330   330
  437   284   284
  438   468   468
  439   489   489
  440   432   432
  441   116   116
  442   186   186
  443   115   115
  444    59    59
  445   384   384
  446    68    68
  447   154   154
  448   465   465
  449   398   398
  450   453   453
  451   498   498
  452   152   152
  453   438   438
  454   165   165
  455   436   436
  456   474   474
  457    86    86
  458   237   237
  459   325   325
  460     9     9
  461   372   372
  462   417   417
  463   277   277
  464   412   412
  465   315   315
  466   147   147
  467   157   157
  468   396   396
  469   156   156
  470   276   276
  471   302   302
  472     9     9
  473   452   452
  474   283   283
  475    88    88
  476    53    53
  477   403   403
  478   426   426
  479   451   451
  480   119   119
  481    32    32
  482   430   430
  483   138   138
  484   406   406
  485   176   176
  486   167   167
  487   182   182
  488   209   209
  489   477   477
  490    68    68
  491   341   341
  492    79    79
  493   480   480
  494   173   173
  495   464   464
  496    56    56
  497   319   319
  498   258   258
  499   239   239
  500   478   478
65073
